language ESSENCE' 1.0

letting size = 8
letting crows =  [10,0,16,16,8,5,20,4]
letting ccols =  [7,12,6,17,13,6,10,1]

$ letting size = 8
$ letting crows be  [0,12,15,8,4,11,7,0]
$ letting ccols be  [3,11,14,6,0,0,0,16]
$ letting ccols be  [0,13,15,11,7,15,3,2]

$ letting size = 7
$ letting crows be  [4,14,2,6,6,3,15]
$ letting ccols be  [4,5,3,11,0,14,13]
